Set parameter Username
Set parameter Threads to value 1
Academic license - for non-commercial use only - expires 2022-07-11
Set parameter TimeLimit to value 300
Gurobi Optimizer version 9.5.1 build v9.5.1rc2 (linux64)
Thread count: 2 physical cores, 4 logical processors, using up to 1 threads
Optimize a model with 880 rows, 820 columns and 3258 nonzeros
Model fingerprint: 0x83cf3b8d
Variable types: 20 continuous, 800 integer (800 binary)
Coefficient statistics:
  Matrix range     [1e+00, 4e+02]
  Objective range  [4e+01, 4e+02]
  Bounds range     [1e+00, 1e+00]
  RHS range        [1e+00, 9e+02]
Presolve removed 623 rows and 538 columns
Presolve time: 0.18s
Presolved: 257 rows, 282 columns, 1406 nonzeros
Variable types: 14 continuous, 268 integer (268 binary)
Found heuristic solution: objective 3266.0000000

Root relaxation: objective 1.124000e+03, 306 iterations, 0.01 seconds (0.00 work units)

    Nodes    |    Current Node    |     Objective Bounds      |     Work
 Expl Unexpl |  Obj  Depth IntInf | Incumbent    BestBd   Gap | It/Node Time

     0     0 1124.00000    0   23 3266.00000 1124.00000  65.6%     -    0s
H    0     0                    2393.0000000 1124.00000  53.0%     -    0s
     0     0 1124.00000    0   34 2393.00000 1124.00000  53.0%     -    0s
     0     0 1139.17610    0   44 2393.00000 1139.17610  52.4%     -    0s
     0     0 1142.16516    0   44 2393.00000 1142.16516  52.3%     -    0s
     0     0 1142.20271    0   44 2393.00000 1142.20271  52.3%     -    0s
     0     0 1197.38054    0   39 2393.00000 1197.38054  50.0%     -    0s
H    0     0                    1914.0000000 1197.38054  37.4%     -    0s
H    0     0                    1876.0000000 1197.38054  36.2%     -    0s
     0     0 1220.87117    0   50 1876.00000 1220.87117  34.9%     -    0s
     0     0 1225.87340    0   53 1876.00000 1225.87340  34.7%     -    0s
     0     0 1227.62965    0   50 1876.00000 1227.62965  34.6%     -    0s
     0     0 1228.86885    0   45 1876.00000 1228.86885  34.5%     -    0s
     0     0 1228.94748    0   45 1876.00000 1228.94748  34.5%     -    0s
     0     0 1243.56636    0   49 1876.00000 1243.56636  33.7%     -    0s
H    0     0                    1724.0000000 1243.56636  27.9%     -    0s
     0     0 1244.46009    0   53 1724.00000 1244.46009  27.8%     -    0s
     0     0 1246.02839    0   52 1724.00000 1246.02839  27.7%     -    0s
     0     0 1247.40559    0   50 1724.00000 1247.40559  27.6%     -    0s
     0     0 1247.45499    0   47 1724.00000 1247.45499  27.6%     -    0s
     0     0 1247.49853    0   50 1724.00000 1247.49853  27.6%     -    0s
     0     0 1255.31342    0   44 1724.00000 1255.31342  27.2%     -    0s
H    0     0                    1704.0000000 1255.31342  26.3%     -    0s
     0     0 1259.08616    0   50 1704.00000 1259.08616  26.1%     -    0s
     0     0 1259.48845    0   50 1704.00000 1259.48845  26.1%     -    0s
     0     0 1259.52771    0   49 1704.00000 1259.52771  26.1%     -    0s
     0     0 1260.20871    0   45 1704.00000 1260.20871  26.0%     -    0s
     0     0 1260.30228    0   47 1704.00000 1260.30228  26.0%     -    0s
     0     0 1260.38146    0   49 1704.00000 1260.38146  26.0%     -    0s
     0     0 1260.40518    0   46 1704.00000 1260.40518  26.0%     -    0s
     0     0 1261.21133    0   51 1704.00000 1261.21133  26.0%     -    0s
     0     0 1262.26015    0   46 1704.00000 1262.26015  25.9%     -    0s
     0     0 1262.27269    0   51 1704.00000 1262.27269  25.9%     -    0s
     0     0 1262.40690    0   51 1704.00000 1262.40690  25.9%     -    0s
     0     0 1262.43658    0   51 1704.00000 1262.43658  25.9%     -    0s
     0     0 1262.44202    0   51 1704.00000 1262.44202  25.9%     -    0s
H    0     0                    1677.0000000 1262.44202  24.7%     -    0s
     0     0 1262.44202    0   46 1677.00000 1262.44202  24.7%     -    0s
     0     2 1276.52851    0   46 1677.00000 1276.52851  23.9%     -    0s
H   81    21                    1655.0000000 1348.88787  18.5%  18.2    0s
H  108    22                    1647.0000000 1387.71772  15.7%  17.2    0s

Cutting planes:
  Gomory: 2
  Cover: 9
  Clique: 5
  MIR: 25
  GUB cover: 8
  RLT: 1
  Relax-and-lift: 10

Explored 233 nodes (4539 simplex iterations) in 0.51 seconds (0.26 work units)
Thread count was 1 (of 4 available processors)

Solution count 9: 1647 1655 1677 ... 3266

Optimal solution found (tolerance 1.00e-04)
Best objective 1.647000000000e+03, best bound 1.647000000000e+03, gap 0.0000%
